973244
16 19 62440
19 4 26533
4 22 23621
22 40 29078
40 27 17541
27 18 12606
18 13 28045
13 28 6411
28 20 26675
20 24 65657
24 5 63665
5 32 3290
32 26 29397
26 33 15458
33 12 3967
12 34 39715
34 25 30137
25 39 4093
39 37 6534
37 30 941
30 31 10287
31 23 11949
23 38 7449
38 29 745
29 36 16895
36 7 11794
7 21 17005
21 1 6578
1 10 6947
10 2 10593
2 35 10541
35 11 5412
11 8 17581
8 6 34947
6 9 47658
9 15 71452
15 17 45489
17 14 42391
14 3 30026
3 16 71701
